  2   0   0   0   0   0   0   0   0   0   0   0   0   0   0   0   0   0   0   0   0   0   0   0   0   0   0   0   0   0   0   0   0   0   0   0   0   0   0   0   0   0   0   0   0   0   0   0   0   0   0   0   0   0   0   0   0   0   0   0   0   0   0   0   0   0   0   0   0   0   0   0   0   0   0   0   0   0   0   0   0   0   0   0   0   0   0   0   0   0   0   0   0   0   0   0   0   0   0   0   0   0   0   0   0   0   0   0   0   0   0   0   0   0   0   0   0   0   0   0   0   0   0   0   0   0   0   0   0   0   0   0   0   0   0   0   0   0   0   0   0   0   0   0   0   0   0   0   0   0   0   0   0   0   0   0   0   0   0   0   0   0   0   0   0   0   0   0   0   0   0   0   0   0   0   0   0   0   0   0   0   0   0   0   0   0   0   0   0   0   0   0   0   0   0   0   0   0   0   0   0   0   0   0   0   0   0   0   0   0   0   0   0   0   0   0   0   0   0   0   0   0   0   0   0   0   0   0   0   0   0   0   0   0   0   0   0   0   0   0   0   0   0   0   0   0   0   0   0   0   0   0   0   0   0   0   0   0   0   0   0   0   0   0   0   0   0   0   0   0   0   0   0   0   0   0   0   0   0   0   0   0   0   0   0   0   0   0   0   0   0   0   0   0   0   0   0   0   0   0   0   0   0   0   0   0   0   0   0   0   0   0   0   0   0   0   0   0   0   0   0   0   0   0   0   0   0   0   0   0   0   0   0   0   0   0   0   0   0   0   0   0   0   0   0   0   0   0   0   0   0   0   0   0   0   0   0   0   0   0   0   0   0   0   0   0   0   0   0   0   0   0   0   0   0   0   0   0   0   0   0   0   0   0   0   0   0   0   0   0   0   0   0   0   0   0   0   0   0   0   0   0   0   0   0   0   0   0   0   0   0   0   0   0   0   0   0   0   0   0   0   0   0   0   0   0   0   0   0   0   0   0   0   0   0   0   0   0   0   0   0   0   0   0   0   0   0   0   0   0   0   0   0   0   0   0   0   0   0   0   0   0   0   0   0   0   0   0   0   0   0   0   0   0   0   0   0   0   0   0   0   0   0   0   0   0   0   0   0   0   0   0   0   0   0   0   0   0   0   0   0   0   0   0   0   0   0   0   0   0   0   0   0   0   0   0   0   0   0   0   0   0   0   0   0   0   0   0   0   0   0   0   0   0   0   0   0   0   0   0   0   0   0   0   0   0   0   0   0   0   0   0   0   0   0   0   0   0   0   0   0   0   0   0   0   0   0   0   0   0   0   0   0   0   0   0   0   0   0   0   0   0   0   0   0   0   0   0   0   0   0   0   0   0   0   0   0   0   0   0   0   0   0   0   0   0   0   0   0   0   0   0   0   0   0   0   0   0   0   0   0   0   0   0   0   0   0   0   0   0   0   0   0   0   0   0   0   0   0   0   0   0   0   0   0   0   0   0   0   0   0   0   0   0   0   0   0   0   0   0   0   0   0   0   0   0   0   0   0   0   0   0   0   0   0   0   0   0   0   0   0   0   0   0   0   0   0   0   0   0   0   0   0   0   0   0   0   0   0   0   0   0   0   0   0   0   0   0   0   0   0   0   0   0   0   0   0   0   0   0   0   0   0   0   0   0   0   0   0   0   0   0   0   0   0   0   0   0   0   0   0   0   0   0   0   0   0   0   0   0   0   0   0   0   0   0   0   0   0   0   0   0   0   0   0   0   0   0   0   0   0   0   0   0   0   0   0   0   0   0   0   0   0   0   0   0   0   0   0   0   0   0   0   0   0   0   0   0   0   0   0   0   0   0   0   0   0   0   0   0   0   0   0   0   0   0   0   0   0   0   0   0   0   0   0   0   0   0   0   0   0   0   0   0   0   0   0   0   0   0   0   0   0   0   0   0   0   0   0   0   0   0   0   0   0   0   0   0   0   0   0   0   0   0   0   0   0   0   0   0   0   0   0   0   0   0   0   0   0   0   0   0   0   0   0   0   0   0   0   0   0   0   0   0   0   0   0   0   0   0   0   0   0   0   0   0   0   0   0   0   0   0   0   0   0   0   0   0   0   0   0   0   0   0   0   0   0   0   0   0   0   0   0   0   0   0   0   0   0   0   0   0   0   0   0   0   0   0   0   0   0   0   0   0   0   0   0   0   0   0   0   0   0   0   0   0   0   0   0   0   0   0   0   0   0   0   0   0   0   0   0   0   0   0   0   0   0   0   0   0   0   0   0   0   0   0   0   0   0   0 
REMAINING SPACE:      88
ACCUMULATED PRIORITY: 200
EXECUTION TIME:       0.000190900
QTY PRI VAL
[2] 100 206
[0]  96 203
[0]  97 210
[0]  96 209
[0]  98 216
[0]  98 217
[0]  95 213
[0]  96 219
[0]  92 211
[0]  89 205
[0]  93 217
[0] 100 238
[0]  99 241
[0]  87 212
[0]  88 216
[0] 100 247
[0]  80 200
[0] 100 251
[0]  80 201
[0]  88 226
[0]  94 242
[0]  98 254
[0]  99 257
[0]  92 240
[0]  84 220
[0]  83 218
[0]  77 203
[0]  94 249
[0]  88 234
[0]  86 234
[0]  97 265
[0]  79 216
[0]  97 267
[0]  83 229
[0]  85 235
[0]  85 236
[0]  73 203
[0] 100 279
[0]  89 249
[0]  94 263
[0]  95 266
[0]  82 230
[0]  82 231
[0]  93 263
[0]  75 213
[0]  87 249
[0]  73 209
[0] 100 287
[0]  86 247
[0]  92 267
[0]  82 238
[0]  74 217
[0]  90 265
[0]  68 201
[0]  75 222
[0]  90 267
[0]  93 277
[0]  83 248
[0]  99 296
[0]  76 230
[0]  76 231
[0]  68 207
[0]  87 266
[0]  90 277
[0]  92 284
[0] 100 309
[0]  98 304
[0]  73 228
[0]  94 294
[0]  67 210
[0]  99 311
[0]  77 242
[0]  82 259
[0]  99 315
[0]  83 266
[0]  70 225
[0]  93 299
[0]  98 316
[0]  95 307
[0]  96 311
[0]  82 270
[0]  77 254
[0]  89 294
[0]  97 321
[0]  98 327
[0]  76 254
[0]  96 321
[0]  80 269
[0]  70 236
[0]  79 267
[0]  75 254
[0]  67 228
[0]  88 300
[0]  76 261
[0]  78 268
[0]  86 296
[0]  86 296
[0]  93 321
[0]  75 259
[0]  92 318
[0]  82 284
[0]  89 309
[0]  74 257
[0]  80 279
[0]  88 309
[0]  71 251
[0]  95 338
[0]  78 278
[0]  85 303
[0]  73 261
[0]  78 279
[0]  57 204
[0]  93 334
[0]  96 345
[0]  97 349
[0]  70 252
[0]  59 213
[0]  72 260
[0]  65 235
[0]  79 286
[0]  58 210
[0]  87 315
[0]  72 261
[0]  91 330
[0]  73 265
[0]  89 324
[0]  81 295
[0]  68 248
[0]  66 241
[0]  67 245
[0]  62 227
[0]  87 319
[0]  95 349
[0]  66 243
[0]  95 351
[0]  89 329
[0]  86 318
[0]  77 286
[0]  84 314
[0]  65 244
[0]  61 229
[0]  74 278
[0]  70 263
[0]  95 357
[0]  87 327
[0]  81 306
[0]  64 242
[0]  61 231
[0]  76 288
[0]  88 336
[0]  96 367
[0]  58 222
[0]  89 343
[0]  54 209
[0]  90 349
[0]  74 287
[0] 100 388
[0]  69 268
[0]  88 342
[0]  82 319
[0]  57 222
[0]  78 304
[0]  71 277
[0]  82 321
[0]  61 239
[0]  98 384
[0]  68 267
[0]  78 307
[0]  86 339
[0]  97 383
[0]  97 383
[0]  91 360
[0]  70 277
[0]  64 254
[0]  69 274
[0]  51 203
[0] 100 400
[0]  60 240
[0]  66 264
[0]  84 338
[0]  74 298
[0]  69 278
[0]  67 270
[0]  63 254
[0]  74 299
[0]  94 380
[0]  87 352
[0]  58 236
[0]  95 387
[0]  79 323
[0]  66 270
[0]  63 258
[0]  81 333
[0]  86 354
[0]  50 206
[0]  71 293
[0]  78 322
[0] 100 413
[0]  67 277
[0]  94 389
[0]  95 394
[0]  67 279
[0]  51 213
[0]  89 372
[0]  54 226
[0]  83 348
[0]  87 365
[0]  61 256
[0]  86 361
[0]  96 403
[0]  78 328
[0]  74 312
[0]  78 329
[0]  65 275
[0]  91 385
[0]  54 229
[0]  77 327
[0]  52 221
[0]  54 231
[0]  81 347
[0]  63 270
[0]  86 369
[0]  49 211
[0]  62 267
[0]  63 272
[0]  72 312
[0]  56 243
[0]  77 335
[0]  65 283
[0]  55 240
[0]  59 258
[0]  48 210
[0]  89 390
[0]  77 338
[0]  53 233
[0]  57 251
[0]  69 304
[0]  76 335
[0]  73 322
[0]  74 327
[0]  63 280
[0]  66 294
[0]  69 308
[0]  69 308
[0]  77 344
[0]  78 349
[0]  97 435
[0]  60 270
[0]  94 423
[0]  69 311
[0]  63 284
[0]  49 221
[0]  91 411
[0]  60 272
[0]  73 331
[0]  86 390
[0]  91 413
[0]  87 395
[0]  73 332
[0]  67 305
[0]  72 328
[0]  97 442
[0]  89 406
[0]  68 311
[0]  71 325
[0]  63 289
[0] 100 459
[0]  80 368
[0]  49 226
[0] 100 462
[0]  74 342
[0]  94 436
[0]  59 274
[0]  92 428
[0]  90 419
[0]  67 312
[0]  73 340
[0]  81 378
[0]  58 271
[0]  87 408
[0]  99 465
[0]  79 372
[0]  62 292
[0]  53 250
[0]  92 434
[0]  86 406
[0]  94 444
[0]  67 317
[0]  89 422
[0]  98 465
[0]  90 428
[0] 100 477
[0]  98 470
[0]  64 307
[0]  51 245
[0] 100 481
[0]  43 207
[0]  77 371
[0] 100 482
[0]  84 405
[0]  73 352
[0]  72 348
[0]  99 480
[0]  76 370
[0]  42 205
[0]  82 401
[0]  92 450
[0]  47 230
[0]  91 446
[0]  85 417
[0]  98 481
[0]  96 472
[0]  77 379
[0]  98 483
[0]  60 296
[0]  74 366
[0]  46 228
[0]  93 461
[0]  52 258
[0]  54 268
[0]  56 278
[0]  62 308
[0]  63 313
[0]  83 413
[0]  97 483
[0]  59 294
[0]  72 359
[0]  87 435
[0]  61 307
[0]  63 318
[0]  62 313
[0]  93 470
[0]  73 369
[0]  73 369
[0]  60 304
[0]  86 436
[0]  42 213
[0]  93 473
[0]  46 234
[0]  91 463
[0]  88 448
[0]  97 494
[0]  87 446
[0]  60 308
[0]  81 416
[0]  68 351
[0]  49 253
[0]  79 408
[0]  69 357
[0]  84 435
[0]  70 363
[0]  61 317
[0]  60 312
[0]  69 359
[0]  72 376
[0]  85 444
[0]  67 350
[0]  58 303
[0]  89 465
[0]  89 465
[0]  92 483
[0]  51 268
[0]  95 500
[0]  80 422
[0]  90 475
[0]  72 380
[0]  61 322
[0]  86 454
[0]  57 301
[0]  59 312
[0]  59 312
[0]  41 217
[0]  54 286
[0]  57 302
[0]  68 362
[0]  71 378
[0]  64 341
[0]  81 432
[0]  89 476
[0]  51 273
[0]  53 284
[0]  75 403
[0]  52 280
[0]  69 372
[0]  43 232
[0]  71 384
[0]  59 320
[0]  70 380
[0]  44 239
[0]  55 300
[0]  44 241
[0]  75 411
[0]  77 422
[0]  54 296
[0]  63 346
[0]  88 484
[0]  42 231
[0]  88 484
[0]  76 420
[0]  82 454
[0]  64 355
[0]  89 494
[0]  78 433
[0]  41 228
[0]  85 473
[0]  72 401
[0]  49 273
[0]  40 223
[0]  73 409
[0]  73 409
[0]  53 297
[0]  66 370
[0]  59 331
[0]  86 483
[0]  84 472
[0]  53 298
[0]  81 458
[0]  68 385
[0]  50 284
[0]  79 449
[0]  51 290
[0]  61 347
[0]  69 393
[0]  84 480
[0]  43 246
[0]  59 339
[0]  54 311
[0]  65 375
[0]  83 479
[0]  70 404
[0]  67 387
[0]  38 220
[0]  57 330
[0]  78 452
[0]  58 337
[0]  70 407
[0]  82 477
[0]  40 233
[0]  75 439
[0]  70 410
[0]  43 252
[0]  75 440
[0]  84 493
[0]  56 329
[0]  49 288
[0]  84 495
[0]  38 224
[0]  72 425
[0]  79 467
[0]  46 272
[0]  46 272
[0]  59 349
[0]  52 308
[0]  55 326
[0]  56 332
[0]  59 350
[0]  34 202
[0]  83 494
[0]  44 262
[0]  39 233
[0]  44 263
[0]  62 371
[0]  78 468
[0]  58 350
[0]  70 423
[0]  74 448
[0]  69 419
[0]  39 237
[0]  64 389
[0]  75 458
[0]  77 471
[0]  54 331
[0]  54 331
[0]  35 215
[0]  75 461
[0]  37 228
[0]  61 376
[0]  57 352
[0]  71 439
[0]  65 403
[0]  44 273
[0]  44 273
[0]  73 454
[0]  76 473
[0]  79 492
[0]  69 430
[0]  54 337
[0]  64 400
[0]  73 457
[0]  69 433
[0]  57 358
[0]  60 377
[0]  70 441
[0]  76 479
[0]  79 499
[0]  61 386
[0]  33 209
[0]  76 482
[0]  69 438
[0]  58 369
[0]  49 312
[0]  34 217
[0]  33 211
[0]  76 486
[0]  72 462
[0]  59 379
[0]  40 257
[0]  67 431
[0]  63 407
[0]  39 252
[0]  68 440
[0]  76 492
[0]  42 273
[0]  64 418
[0]  59 387
[0]  56 368
[0]  42 276
[0]  42 276
[0]  54 356
[0]  54 356
[0]  52 343
[0]  66 438
[0]  48 319
[0]  47 313
[0]  52 347
[0]  32 214
[0]  52 349
[0]  44 297
[0]  62 419
[0]  52 352
[0]  38 258
[0]  63 428
[0]  41 279
[0]  69 472
[0]  38 260
[0]  65 445
[0]  50 343
[0]  61 419
[0]  72 495
[0]  48 330
[0]  65 448
[0]  39 269
[0]  51 352
[0]  43 297
[0]  47 325
[0]  38 263
[0]  51 353
[0]  43 298
[0]  40 278
[0]  34 237
[0]  61 426
[0]  41 287
[0]  63 441
[0]  50 351
[0]  64 450
[0]  29 204
[0]  71 500
[0]  64 451
[0]  57 402
[0]  60 424
[0]  34 241
[0]  48 341
[0]  34 242
[0]  42 300
[0]  57 409
[0]  61 439
[0]  67 483
[0]  46 332
[0]  68 491
[0]  60 435
[0]  39 283
[0]  51 371
[0]  39 284
[0]  41 299
[0]  55 402
[0]  35 256
[0]  50 367
[0]  66 485
[0]  35 258
[0]  43 317
[0]  45 332
[0]  65 480
[0]  55 407
[0]  55 408
[0]  45 335
[0]  49 365
[0]  39 291
[0]  39 292
[0]  39 292
[0]  40 300
[0]  54 406
[0]  59 444
[0]  61 460
[0]  52 393
[0]  58 439
[0]  63 477
[0]  37 281
[0]  33 251
[0]  59 450
[0]  52 398
[0]  59 452
[0]  63 483
[0]  51 391
[0]  34 261
[0]  50 384
[0]  32 247
[0]  26 201
[0]  61 472
[0]  52 403
[0]  48 372
[0]  53 411
[0]  48 373
[0]  61 475
[0]  49 382
[0]  64 500
[0]  54 422
[0]  63 494
[0]  53 417
[0]  42 332
[0]  37 293
[0]  41 325
[0]  61 484
[0]  32 254
[0]  45 359
[0]  58 463
[0]  47 376
[0]  47 377
[0]  35 281
[0]  29 233
[0]  30 242
[0]  58 468
[0]  46 372
[0]  44 356
[0]  29 235
[0]  58 470
[0]  27 219
[0]  34 276
[0]  60 489
[0]  54 441
[0]  52 425
[0]  55 452
[0]  46 379
[0]  50 413
[0]  30 249
[0]  59 490
[0]  26 216
[0]  51 425
[0]  32 267
[0]  32 267
[0]  32 268
[0]  39 327
[0]  52 437
[0]  49 412
[0]  36 303
[0]  59 498
[0]  33 279
[0]  37 313
[0]  53 449
[0]  45 383
[0]  31 264
[0]  30 256
[0]  40 342
[0]  58 498
[0]  35 301
[0]  34 293
[0]  53 457
[0]  54 466
[0]  39 337
[0]  33 286
[0]  44 383
[0]  42 366
[0]  53 463
[0]  42 368
[0]  47 413
[0]  55 486
[0]  49 433
[0]  51 452
[0]  52 461
[0]  46 408
[0]  39 347
[0]  41 365
[0]  46 410
[0]  38 339
[0]  51 455
[0]  56 500
[0]  41 367
[0]  54 486
[0]  41 369
[0]  50 452
[0]  43 390
[0]  44 400
[0]  54 491
[0]  38 347
[0]  35 320
[0]  33 302
[0]  30 276
[0]  54 498
[0]  25 231
[0]  52 481
[0]  52 483
[0]  48 446
[0]  53 494
[0]  49 457
[0]  26 243
[0]  43 403
[0]  51 478
[0]  34 319
[0]  31 292
[0]  45 424
[0]  48 454
[0]  39 372
[0]  39 374
[0]  30 289
[0]  29 280
[0]  33 321
[0]  33 321
[0]  35 342
[0]  48 470
[0]  30 294
[0]  41 403
[0]  30 295
[0]  47 465
[0]  42 416
[0]  46 456
[0]  49 486
[0]  45 447
[0]  47 469
[0]  49 489
[0]  45 452
[0]  48 484
[0]  40 404
[0]  48 485
[0]  27 273
[0]  23 233
[0]  47 477
[0]  44 449
[0]  23 235
[0]  48 491
[0]  28 287
[0]  34 349
[0]  32 329
[0]  41 422
[0]  28 289
[0]  48 496
[0]  47 486
[0]  45 466
[0]  44 457
[0]  23 239
[0]  42 437
[0]  42 437
[0]  20 209
[0]  43 451
[0]  30 315
[0]  28 294
[0]  45 473
[0]  36 379
[0]  39 413
[0]  32 340
[0]  41 437
[0]  44 469
[0]  36 384
[0]  30 320
[0]  27 288
[0]  29 310
[0]  45 488
[0]  29 317
[0]  32 350
[0]  26 285
[0]  43 472
[0]  19 209
[0]  39 430
[0]  27 298
[0]  41 454
[0]  27 300
[0]  39 434
[0]  31 346
[0]  44 494
[0]  40 450
[0]  19 216
[0]  19 216
[0]  35 399
[0]  41 468
[0]  24 274
[0]  43 491
[0]  28 320
[0]  41 470
[0]  31 356
[0]  38 438
[0]  26 300
[0]  29 335
[0]  39 453
[0]  26 302
[0]  42 488
[0]  20 233
[0]  39 455
[0]  40 471
[0]  38 448
[0]  29 342
[0]  38 450
[0]  18 214
[0]  19 227
[0]  36 432
[0]  27 326
[0]  22 267
[0]  22 267
[0]  19 233
[0]  30 368
[0]  27 333
[0]  30 371
[0]  28 348
[0]  22 274
[0]  30 375
[0]  39 489
[0]  39 489
[0]  22 278
[0]  35 443
[0]  27 342
[0]  17 216
[0]  20 257
[0]  30 386
[0]  32 413
[0]  25 327
[0]  38 498
[0]  29 382
[0]  34 451
[0]  18 239
[0]  33 442
[0]  25 335
[0]  30 403
[0]  32 432
[0]  26 351
[0]  19 259
[0]  28 383
[0]  31 425
[0]  18 247
[0]  35 482
[0]  21 290
[0]  20 278
[0]  24 334
[0]  35 491
[0]  31 435
[0]  34 479
[0]  35 496
[0]  30 427
[0]  32 456
[0]  15 215
[0]  29 416
[0]  33 474
[0]  31 448
[0]  22 318
[0]  32 465
[0]  30 436
[0]  34 495
[0]  31 452
[0]  27 394
[0]  22 322
[0]  30 440
[0]  24 353
[0]  27 398
[0]  32 472
[0]  18 268
[0]  16 239
[0]  25 375
[0]  14 211
[0]  31 470
[0]  19 291
[0]  21 322
[0]  31 481
[0]  30 467
[0]  19 298
[0]  14 221
[0]  19 302
[0]  19 302
[0]  21 334
[0]  28 449
[0]  30 483
[0]  30 487
[0]  27 440
[0]  19 312
[0]  19 318
[0]  21 353
[0]  28 471
[0]  28 471
[0]  28 472
[0]  27 464
[0]  16 279
[0]  24 419
[0]  15 264
[0]  24 423
[0]  24 424
[0]  21 371
[0]  20 356
[0]  27 481
[0]  25 446
[0]  19 341
[0]  20 360
[0]  17 311
[0]  14 257
[0]  13 239
[0]  19 350
[0]  26 479
[0]  27 499
[0]  26 482
[0]  25 467
[0]  23 430
[0]  23 430
[0]  20 376
[0]  16 303
[0]  16 304
[0]  21 402
[0]  16 313
[0]  23 451
[0]  21 413
[0]  23 454
[0]  21 416
[0]  15 298
[0]  21 418
[0]  24 479
[0]  13 260
[0]  12 243
[0]  10 203
[0]  21 428
[0]  24 492
[0]  23 472
[0]  24 496
[0]  23 480
[0]  20 418
[0]  20 421
[0]  23 489
[0]  21 448
[0]  13 279
[0]  18 387
[0]  21 452
[0]  15 325
[0]  18 390
[0]  22 477
[0]  14 309
[0]  19 420
[0]  12 267
[0]  12 268
[0]  13 291
[0]  20 454
[0]  13 296
[0]  19 436
[0]  12 277
[0]  18 424
[0]  15 355
[0]  11 261
[0]  20 475
[0]  13 310
[0]  15 361
[0]  14 339
[0]  10 243
[0]  18 438
[0]  15 368
[0]  13 323
[0]  13 325
[0]  17 432
[0]  10 259
[0]  13 337
[0]  12 312
[0]  10 263
[0]  17 449
[0]  17 452
[0]  13 350
[0]  15 405
[0]  10 275
[0]  13 362
[0]  14 410
[0]  17 498
[0]  12 355
[0]  14 425
[0]  15 456
[0]  15 461
[0]  10 313
[0]  14 440
[0]  15 474
[0]  11 349
[0]  10 325
[0]  15 491
[0]  11 366
[0]  11 372
[0]  12 406
[0]  10 345
[0]  10 363
[0]  13 473
[0]  13 487
[0]  13 493
[0]  10 381
[0]  12 463
[0]  12 465
[0]  11 430
[0]  10 396
[0]  11 445
[0]  11 456
[0]  12 500
[0]  10 426
[0]  10 429
[0]  10 473
[0]  10 493
